2
986    486    422 45
612    492    384 70
10
348    248    19 29	83
89    89    86 8	89
210    53    43 44	19
106    57    57 99	55
128    128    130 31	78
256    103    98 114	110
101    93    52 13	93
205    62    54 135	43
256    98    101 106	123
383    330    200 7	106

